p cnf 290 1234
-36 12 34 22 17 0
13 -25 -6 -10 -43 0
21 -29 11 -25 -13 0
-44 7 23 30 -37 0
13 -8 -27 1 -19 0
-6 5 46 23 9 0
30 -27 -31 -10 -38 0
-31 8 -45 3 -50 0
13 -31 -19 -47 -16 0
48 11 -44 -4 -5 0
-45 16 -11 42 46 0
13 9 -37 41 -12 0
-32 35 10 1 -38 0
50 -5 15 -29 -46 0
40 -32 -19 36 -8 0
-28 -34 32 6 26 0
-36 -4 -6 22 -16 0
33 -8 -1 -3 24 0
48 -14 42 -10 38 0
12 -10 -40 -42 33 0
13 -16 15 31 -48 0
-36 40 -21 28 11 0
-14 -21 44 -24 46 0
31 7 21 -13 45 0
43 15 23 -47 -32 0
33 29 43 15 -49 0
-21 -13 -9 29 39 0
-36 39 43 17 22 0
2 -21 33 -45 15 0
12 -13 -36 -49 -4 0
25 44 20 -8 13 0
44 3 -18 -48 49 0
39 3 -5 47 -21 0
-2 24 13 27 -44 0
33 -31 37 42 -16 0
10 -17 19 -42 35 0
-11 -24 -37 -40 26 0
45 -21 4 -9 22 0
28 -5 -12 -23 50 0
-16 -21 -38 -20 30 0
-49 -5 -14 48 -24 0
14 -20 32 -24 34 0
-39 -22 35 -45 6 0
25 -31 3 24 -10 0
-4 -22 -21 38 -46 0
-22 13 -20 7 -43 0
-1 31 26 12 48 0
10 23 2 44 -49 0
-31 21 4 20 -33 0
11 -18 38 -21 45 0
-34 -39 41 -28 -42 0
43 1 45 7 21 0
-50 -37 14 -42 2 0
37 8 -32 44 -47 0
-8 33 -31 12 46 0
7 -49 27 -47 42 0
24 -38 49 -25 31 0
-30 42 45 -46 11 0
-24 23 41 31 17 0
3 -11 -5 -24 4 0
-16 11 23 35 8 0
-30 -48 -16 -33 36 0
-30 14 4 -25 6 0
-12 -42 -35 47 21 0
-6 -35 -26 -44 -5 0
-3 5 14 28 44 0
-20 21 -48 10 5 0
6 29 -4 -2 -35 0
-31 -22 35 37 -50 0
32 -16 31 49 45 0
13 -14 -12 43 40 0
-2 49 -39 26 34 0
-12 -7 -45 31 4 0
7 -3 33 41 5 0
29 36 -34 -43 -44 0
10 45 -7 37 -44 0
43 -5 37 50 14 0
13 -45 -30 -47 -16 0
-43 -27 -46 -36 -6 0
-43 -35 -24 -4 -44 0
36 -16 -4 -14 -47 0
11 -35 27 -7 30 0
3 -24 -42 -12 6 0
10 2 24 35 32 0
-34 28 38 -4 46 0
7 -34 -16 -2 -41 0
36 25 -33 42 45 0
-7 45 -35 -13 39 0
-13 -17 -35 -50 22 0
41 43 26 14 -44 0
-49 28 1 48 9 0
-1 -48 34 13 23 0
45 19 -5 9 -50 0
-44 37 -2 -5 3 0
-4 17 -48 33 32 0
4 30 46 -48 -49 0
11 -28 -14 3 39 0
23 6 2 29 37 0
-17 -50 -8 46 47 0
46 2 -8 45 34 0
16 9 -46 47 -31 0
16 1 -15 2 -48 0
39 -8 -18 -38 -3 0
-2 -47 -41 -33 -9 0
48 14 -39 -42 -8 0
5 14 -12 -49 -17 0
4 17 5 33 23 0
14 31 -13 29 -38 0
25 -8 26 29 2 0
42 10 -48 -21 50 0
-50 17 23 -14 -4 0
-22 -47 -20 -9 18 0
28 34 -24 23 26 0
-15 12 -39 -33 49 0
32 -31 -9 25 -43 0
-34 -43 -48 27 6 0
9 -18 44 -25 -17 0
17 19 28 -25 -29 0
49 -31 -9 48 12 0
-6 -48 -11 16 22 0
34 28 33 5 19 0
-13 -25 -29 -17 -39 0
42 13 -1 16 23 0
-19 -16 1 -17 -6 0
-24 40 -46 19 -35 0
28 -19 -49 -50 -8 0
-33 -45 50 14 21 0
12 13 11 8 -6 0
11 15 -13 -44 31 0
50 10 -19 13 16 0
-5 8 35 11 -39 0
11 41 -28 4 36 0
-5 -37 -14 31 -50 0
-48 -26 -47 17 -6 0
-49 -22 -18 48 15 0
13 14 -47 18 -10 0
1 -36 29 -18 -43 0
-8 -25 -2 23 -18 0
42 48 -9 21 18 0
39 9 1 46 24 0
18 -35 43 6 -50 0
39 29 -11 -42 37 0
-4 -9 -33 7 -2 0
50 44 -43 -14 -30 0
-6 -34 29 39 -44 0
-12 -44 50 2 21 0
-9 -34 -24 -13 -43 0
2 27 -16 46 35 0
-47 34 -25 -45 -14 0
29 46 47 -44 31 0
-46 12 32 48 -16 0
22 -46 -20 -42 -50 0
18 15 20 -11 -9 0
-25 -44 -36 19 31 0
-11 -35 -17 -36 42 0
-5 -37 30 36 -19 0
10 -43 -32 36 44 0
8 12 43 -24 40 0
30 17 28 37 -25 0
-39 32 -15 33 -22 0
18 -41 33 12 42 0
39 -32 -14 43 11 0
36 11 -17 -49 -34 0
27 -18 -19 -5 30 0
-50 13 1 -21 11 0
3 -4 49 -20 11 0
3 -22 -8 12 -38 0
-34 -2 13 -3 36 0
7 -47 -24 29 -43 0
30 -35 44 36 -39 0
-46 -38 -4 20 50 0
-16 -4 30 25 -3 0
2 -5 -26 22 4 0
-33 2 1 18 -48 0
-14 -47 -33 -21 42 0
-9 -23 -13 50 40 0
12 42 20 34 -29 0
47 -16 -46 -31 34 0
12 -50 22 30 40 0
-5 40 41 7 16 0
-28 -16 39 48 -40 0
38 47 46 29 11 0
-19 -44 -11 38 -13 0
11 6 17 45 44 0
-43 4 10 7 22 0
49 -27 38 28 -20 0
16 20 35 1 5 0
32 33 -5 -41 15 0
-34 -26 -17 37 50 0
-45 34 40 3 39 0
24 -23 27 -50 34 0
-37 -34 25 36 16 0
-19 -9 -42 12 -43 0
26 -20 25 21 46 0
25 -26 38 -10 37 0
34 -3 26 32 12 0
31 -38 2 3 -48 0
-4 -44 25 40 -11 0
-2 -15 -45 30 38 0
19 24 42 7 22 0
4 30 31 -43 12 0
-48 7 -33 1 26 0
-50 -4 45 5 -7 0
3 -34 -14 -23 -6 0
-28 -46 11 14 1 0
16 9 -5 40 48 0
3 -9 21 39 -31 0
-10 -27 18 -8 -47 0
-1 -13 48 8 -29 0
-36 -39 13 -38 5 0
-39 -11 -50 14 8 0
9 -48 8 27 47 0
6 -1 14 48 -13 0
-7 -22 33 31 -9 0
10 -2 -42 37 12 0
-29 -46 1 -22 26 0
-21 -34 -29 -50 -42 0
27 3 -34 19 4 0
-21 22 32 50 40 0
-3 -35 -1 20 -12 0
41 -3 -50 32 -12 0
21 12 8 -7 -13 0
-25 15 2 1 31 0
-49 4 6 -35 23 0
-48 -46 -38 29 -47 0
9 -6 25 35 -44 0
-31 -47 -37 10 -23 0
-32 -38 34 -48 -43 0
-27 -4 5 -25 -28 0
15 46 50 30 32 0
-49 48 20 2 -38 0
29 47 8 33 -45 0
-45 -34 30 16 -33 0
10 13 -2 36 45 0
-21 36 -27 -13 2 0
22 24 -3 -2 38 0
29 49 43 -34 20 0
-38 -33 12 32 -50 0
3 28 -10 -30 -48 0
-32 7 43 -6 39 0
36 6 32 46 38 0
-39 -48 45 2 -24 0
-9 -31 -7 12 -35 0
44 23 41 -13 32 0
48 -47 22 -9 39 0
-5 34 -33 37 -30 0
-25 12 -28 29 -31 0
39 -31 27 14 -1 0
-1 -50 -38 18 -33 0
-21 -50 15 38 16 0
-1 2 51 0
1 2 -51 0
-1 -2 -51 0
1 -2 51 0
-4 -8 52 0
4 -8 -52 0
-4 8 -52 0
4 8 52 0
-10 -11 53 0
10 -11 -53 0
-10 11 -53 0
10 11 53 0
-13 16 54 0
13 16 -54 0
-13 -16 -54 0
13 -16 54 0
-18 -21 55 0
18 -21 -55 0
-18 21 -55 0
18 21 55 0
23 -24 56 0
-23 -24 -56 0
23 24 -56 0
-23 24 56 0
-25 -27 57 0
25 -27 -57 0
-25 27 -57 0
25 27 57 0
28 30 58 0
-28 30 -58 0
28 -30 -58 0
-28 -30 58 0
34 35 59 0
-34 35 -59 0
34 -35 -59 0
-34 -35 59 0
-38 39 60 0
38 39 -60 0
-38 -39 -60 0
38 -39 60 0
40 -41 61 0
-40 -41 -61 0
40 41 -61 0
-40 41 61 0
43 -48 62 0
-43 -48 -62 0
43 48 -62 0
-43 48 62 0
-49 -50 63 0
49 -50 -63 0
-49 50 -63 0
49 50 63 0
51 -52 64 0
-51 -52 -64 0
51 52 -64 0
-51 52 64 0
53 -54 65 0
-53 -54 -65 0
53 54 -65 0
-53 54 65 0
55 -56 66 0
-55 -56 -66 0
55 56 -66 0
-55 56 66 0
57 -58 67 0
-57 -58 -67 0
57 58 -67 0
-57 58 67 0
59 -60 68 0
-59 -60 -68 0
59 60 -68 0
-59 60 68 0
61 -62 69 0
-61 -62 -69 0
61 62 -69 0
-61 62 69 0
63 -64 70 0
-63 -64 -70 0
63 64 -70 0
-63 64 70 0
65 -66 71 0
-65 -66 -71 0
65 66 -71 0
-65 66 71 0
67 -68 72 0
-67 -68 -72 0
67 68 -72 0
-67 68 72 0
69 -70 73 0
-69 -70 -73 0
69 70 -73 0
-69 70 73 0
71 -72 74 0
-71 -72 -74 0
71 72 -74 0
-71 72 74 0
73 74 0
-73 -74 0
-2 3 75 0
2 3 -75 0
-2 -3 -75 0
2 -3 75 0
8 10 76 0
-8 10 -76 0
8 -10 -76 0
-8 -10 76 0
11 -12 77 0
-11 -12 -77 0
11 12 -77 0
-11 12 77 0
15 17 78 0
-15 17 -78 0
15 -17 -78 0
-15 -17 78 0
-18 19 79 0
18 19 -79 0
-18 -19 -79 0
18 -19 79 0
-21 -24 80 0
21 -24 -80 0
-21 24 -80 0
21 24 80 0
28 30 81 0
-28 30 -81 0
28 -30 -81 0
-28 -30 81 0
-32 33 82 0
32 33 -82 0
-32 -33 -82 0
32 -33 82 0
-34 35 83 0
34 35 -83 0
-34 -35 -83 0
34 -35 83 0
36 39 84 0
-36 39 -84 0
36 -39 -84 0
-36 -39 84 0
41 45 85 0
-41 45 -85 0
41 -45 -85 0
-41 -45 85 0
48 -50 86 0
-48 -50 -86 0
48 50 -86 0
-48 50 86 0
75 -76 87 0
-75 -76 -87 0
75 76 -87 0
-75 76 87 0
77 -78 88 0
-77 -78 -88 0
77 78 -88 0
-77 78 88 0
79 -80 89 0
-79 -80 -89 0
79 80 -89 0
-79 80 89 0
81 -82 90 0
-81 -82 -90 0
81 82 -90 0
-81 82 90 0
83 -84 91 0
-83 -84 -91 0
83 84 -91 0
-83 84 91 0
85 -86 92 0
-85 -86 -92 0
85 86 -92 0
-85 86 92 0
87 -88 93 0
-87 -88 -93 0
87 88 -93 0
-87 88 93 0
89 -90 94 0
-89 -90 -94 0
89 90 -94 0
-89 90 94 0
91 -92 95 0
-91 -92 -95 0
91 92 -95 0
-91 92 95 0
-93 -94 95 0
93 -94 -95 0
-93 94 -95 0
93 94 95 0
1 -2 96 0
-1 -2 -96 0
1 2 -96 0
-1 2 96 0
-4 -5 97 0
4 -5 -97 0
-4 5 -97 0
4 5 97 0
7 -9 98 0
-7 -9 -98 0
7 9 -98 0
-7 9 98 0
10 -12 99 0
-10 -12 -99 0
10 12 -99 0
-10 12 99 0
14 -15 100 0
-14 -15 -100 0
14 15 -100 0
-14 15 100 0
17 20 101 0
-17 20 -101 0
17 -20 -101 0
-17 -20 101 0
-23 25 102 0
23 25 -102 0
-23 -25 -102 0
23 -25 102 0
-28 -30 103 0
28 -30 -103 0
-28 30 -103 0
28 30 103 0
-31 -32 104 0
31 -32 -104 0
-31 32 -104 0
31 32 104 0
-33 35 105 0
33 35 -105 0
-33 -35 -105 0
33 -35 105 0
-36 -37 106 0
36 -37 -106 0
-36 37 -106 0
36 37 106 0
-38 -39 107 0
38 -39 -107 0
-38 39 -107 0
38 39 107 0
43 45 108 0
-43 45 -108 0
43 -45 -108 0
-43 -45 108 0
-46 49 109 0
46 49 -109 0
-46 -49 -109 0
46 -49 109 0
96 -97 110 0
-96 -97 -110 0
96 97 -110 0
-96 97 110 0
98 -99 111 0
-98 -99 -111 0
98 99 -111 0
-98 99 111 0
100 -101 112 0
-100 -101 -112 0
100 101 -112 0
-100 101 112 0
102 -103 113 0
-102 -103 -113 0
102 103 -113 0
-102 103 113 0
104 -105 114 0
-104 -105 -114 0
104 105 -114 0
-104 105 114 0
106 -107 115 0
-106 -107 -115 0
106 107 -115 0
-106 107 115 0
108 -109 116 0
-108 -109 -116 0
108 109 -116 0
-108 109 116 0
110 -111 117 0
-110 -111 -117 0
110 111 -117 0
-110 111 117 0
112 -113 118 0
-112 -113 -118 0
112 113 -118 0
-112 113 118 0
114 -115 119 0
-114 -115 -119 0
114 115 -119 0
-114 115 119 0
116 -117 120 0
-116 -117 -120 0
116 117 -120 0
-116 117 120 0
118 -119 121 0
-118 -119 -121 0
118 119 -121 0
-118 119 121 0
120 121 0
-120 -121 0
4 5 122 0
-4 5 -122 0
4 -5 -122 0
-4 -5 122 0
7 8 123 0
-7 8 -123 0
7 -8 -123 0
-7 -8 123 0
11 13 124 0
-11 13 -124 0
11 -13 -124 0
-11 -13 124 0
16 -18 125 0
-16 -18 -125 0
16 18 -125 0
-16 18 125 0
19 -21 126 0
-19 -21 -126 0
19 21 -126 0
-19 21 126 0
26 29 127 0
-26 29 -127 0
26 -29 -127 0
-26 -29 127 0
-30 -35 128 0
30 -35 -128 0
-30 35 -128 0
30 35 128 0
36 39 129 0
-36 39 -129 0
36 -39 -129 0
-36 -39 129 0
-41 -42 130 0
41 -42 -130 0
-41 42 -130 0
41 42 130 0
122 -123 131 0
-122 -123 -131 0
122 123 -131 0
-122 123 131 0
124 -125 132 0
-124 -125 -132 0
124 125 -132 0
-124 125 132 0
126 -127 133 0
-126 -127 -133 0
126 127 -133 0
-126 127 133 0
128 -129 134 0
-128 -129 -134 0
128 129 -134 0
-128 129 134 0
130 -131 135 0
-130 -131 -135 0
130 131 -135 0
-130 131 135 0
132 -133 136 0
-132 -133 -136 0
132 133 -136 0
-132 133 136 0
-134 -135 136 0
134 -135 -136 0
-134 135 -136 0
134 135 136 0
-1 2 137 0
1 2 -137 0
-1 -2 -137 0
1 -2 137 0
4 5 138 0
-4 5 -138 0
4 -5 -138 0
-4 -5 138 0
7 -9 139 0
-7 -9 -139 0
7 9 -139 0
-7 9 139 0
11 -12 140 0
-11 -12 -140 0
11 12 -140 0
-11 12 140 0
13 -16 141 0
-13 -16 -141 0
13 16 -141 0
-13 16 141 0
-17 -19 142 0
17 -19 -142 0
-17 19 -142 0
17 19 142 0
20 -21 143 0
-20 -21 -143 0
20 21 -143 0
-20 21 143 0
-23 24 144 0
23 24 -144 0
-23 -24 -144 0
23 -24 144 0
26 -27 145 0
-26 -27 -145 0
26 27 -145 0
-26 27 145 0
29 31 146 0
-29 31 -146 0
29 -31 -146 0
-29 -31 146 0
34 36 147 0
-34 36 -147 0
34 -36 -147 0
-34 -36 147 0
-39 40 148 0
39 40 -148 0
-39 -40 -148 0
39 -40 148 0
42 48 149 0
-42 48 -149 0
42 -48 -149 0
-42 -48 149 0
49 50 150 0
-49 50 -150 0
49 -50 -150 0
-49 -50 150 0
137 -138 151 0
-137 -138 -151 0
137 138 -151 0
-137 138 151 0
139 -140 152 0
-139 -140 -152 0
139 140 -152 0
-139 140 152 0
141 -142 153 0
-141 -142 -153 0
141 142 -153 0
-141 142 153 0
143 -144 154 0
-143 -144 -154 0
143 144 -154 0
-143 144 154 0
145 -146 155 0
-145 -146 -155 0
145 146 -155 0
-145 146 155 0
147 -148 156 0
-147 -148 -156 0
147 148 -156 0
-147 148 156 0
149 -150 157 0
-149 -150 -157 0
149 150 -157 0
-149 150 157 0
151 -152 158 0
-151 -152 -158 0
151 152 -158 0
-151 152 158 0
153 -154 159 0
-153 -154 -159 0
153 154 -159 0
-153 154 159 0
155 -156 160 0
-155 -156 -160 0
155 156 -160 0
-155 156 160 0
157 -158 161 0
-157 -158 -161 0
157 158 -161 0
-157 158 161 0
159 -160 162 0
-159 -160 -162 0
159 160 -162 0
-159 160 162 0
161 162 0
-161 -162 0
-1 2 163 0
1 2 -163 0
-1 -2 -163 0
1 -2 163 0
-3 -7 164 0
3 -7 -164 0
-3 7 -164 0
3 7 164 0
-8 -9 165 0
8 -9 -165 0
-8 9 -165 0
8 9 165 0
-10 11 166 0
10 11 -166 0
-10 -11 -166 0
10 -11 166 0
-12 -15 167 0
12 -15 -167 0
-12 15 -167 0
12 15 167 0
-17 19 168 0
17 19 -168 0
-17 -19 -168 0
17 -19 168 0
-21 22 169 0
21 22 -169 0
-21 -22 -169 0
21 -22 169 0
-27 29 170 0
27 29 -170 0
-27 -29 -170 0
27 -29 170 0
32 33 171 0
-32 33 -171 0
32 -33 -171 0
-32 -33 171 0
34 36 172 0
-34 36 -172 0
34 -36 -172 0
-34 -36 172 0
38 -39 173 0
-38 -39 -173 0
38 39 -173 0
-38 39 173 0
-43 44 174 0
43 44 -174 0
-43 -44 -174 0
43 -44 174 0
-45 48 175 0
45 48 -175 0
-45 -48 -175 0
45 -48 175 0
163 -164 176 0
-163 -164 -176 0
163 164 -176 0
-163 164 176 0
165 -166 177 0
-165 -166 -177 0
165 166 -177 0
-165 166 177 0
167 -168 178 0
-167 -168 -178 0
167 168 -178 0
-167 168 178 0
169 -170 179 0
-169 -170 -179 0
169 170 -179 0
-169 170 179 0
171 -172 180 0
-171 -172 -180 0
171 172 -180 0
-171 172 180 0
173 -174 181 0
-173 -174 -181 0
173 174 -181 0
-173 174 181 0
175 -176 182 0
-175 -176 -182 0
175 176 -182 0
-175 176 182 0
177 -178 183 0
-177 -178 -183 0
177 178 -183 0
-177 178 183 0
179 -180 184 0
-179 -180 -184 0
179 180 -184 0
-179 180 184 0
181 -182 185 0
-181 -182 -185 0
181 182 -185 0
-181 182 185 0
183 -184 186 0
-183 -184 -186 0
183 184 -186 0
-183 184 186 0
185 186 0
-185 -186 0
3 -5 187 0
-3 -5 -187 0
3 5 -187 0
-3 5 187 0
-7 -8 188 0
7 -8 -188 0
-7 8 -188 0
7 8 188 0
-10 -12 189 0
10 -12 -189 0
-10 12 -189 0
10 12 189 0
13 -15 190 0
-13 -15 -190 0
13 15 -190 0
-13 15 190 0
-17 19 191 0
17 19 -191 0
-17 -19 -191 0
17 -19 191 0
-23 26 192 0
23 26 -192 0
-23 -26 -192 0
23 -26 192 0
-28 29 193 0
28 29 -193 0
-28 -29 -193 0
28 -29 193 0
-30 34 194 0
30 34 -194 0
-30 -34 -194 0
30 -34 194 0
-36 37 195 0
36 37 -195 0
-36 -37 -195 0
36 -37 195 0
41 -42 196 0
-41 -42 -196 0
41 42 -196 0
-41 42 196 0
43 44 197 0
-43 44 -197 0
43 -44 -197 0
-43 -44 197 0
45 -46 198 0
-45 -46 -198 0
45 46 -198 0
-45 46 198 0
-48 50 199 0
48 50 -199 0
-48 -50 -199 0
48 -50 199 0
187 -188 200 0
-187 -188 -200 0
187 188 -200 0
-187 188 200 0
189 -190 201 0
-189 -190 -201 0
189 190 -201 0
-189 190 201 0
191 -192 202 0
-191 -192 -202 0
191 192 -202 0
-191 192 202 0
193 -194 203 0
-193 -194 -203 0
193 194 -203 0
-193 194 203 0
195 -196 204 0
-195 -196 -204 0
195 196 -204 0
-195 196 204 0
197 -198 205 0
-197 -198 -205 0
197 198 -205 0
-197 198 205 0
199 -200 206 0
-199 -200 -206 0
199 200 -206 0
-199 200 206 0
201 -202 207 0
-201 -202 -207 0
201 202 -207 0
-201 202 207 0
203 -204 208 0
-203 -204 -208 0
203 204 -208 0
-203 204 208 0
205 -206 209 0
-205 -206 -209 0
205 206 -209 0
-205 206 209 0
207 -208 210 0
-207 -208 -210 0
207 208 -210 0
-207 208 210 0
209 210 0
-209 -210 0
1 -3 211 0
-1 -3 -211 0
1 3 -211 0
-1 3 211 0
-4 -6 212 0
4 -6 -212 0
-4 6 -212 0
4 6 212 0
-7 8 213 0
7 8 -213 0
-7 -8 -213 0
7 -8 213 0
-11 15 214 0
11 15 -214 0
-11 -15 -214 0
11 -15 214 0
17 -19 215 0
-17 -19 -215 0
17 19 -215 0
-17 19 215 0
-20 -21 216 0
20 -21 -216 0
-20 21 -216 0
20 21 216 0
23 24 217 0
-23 24 -217 0
23 -24 -217 0
-23 -24 217 0
27 -28 218 0
-27 -28 -218 0
27 28 -218 0
-27 28 218 0
-29 31 219 0
29 31 -219 0
-29 -31 -219 0
29 -31 219 0
33 36 220 0
-33 36 -220 0
33 -36 -220 0
-33 -36 220 0
-38 39 221 0
38 39 -221 0
-38 -39 -221 0
38 -39 221 0
40 41 222 0
-40 41 -222 0
40 -41 -222 0
-40 -41 222 0
-42 44 223 0
42 44 -223 0
-42 -44 -223 0
42 -44 223 0
45 -47 224 0
-45 -47 -224 0
45 47 -224 0
-45 47 224 0
49 50 225 0
-49 50 -225 0
49 -50 -225 0
-49 -50 225 0
211 -212 226 0
-211 -212 -226 0
211 212 -226 0
-211 212 226 0
213 -214 227 0
-213 -214 -227 0
213 214 -227 0
-213 214 227 0
215 -216 228 0
-215 -216 -228 0
215 216 -228 0
-215 216 228 0
217 -218 229 0
-217 -218 -229 0
217 218 -229 0
-217 218 229 0
219 -220 230 0
-219 -220 -230 0
219 220 -230 0
-219 220 230 0
221 -222 231 0
-221 -222 -231 0
221 222 -231 0
-221 222 231 0
223 -224 232 0
-223 -224 -232 0
223 224 -232 0
-223 224 232 0
225 -226 233 0
-225 -226 -233 0
225 226 -233 0
-225 226 233 0
227 -228 234 0
-227 -228 -234 0
227 228 -234 0
-227 228 234 0
229 -230 235 0
-229 -230 -235 0
229 230 -235 0
-229 230 235 0
231 -232 236 0
-231 -232 -236 0
231 232 -236 0
-231 232 236 0
233 -234 237 0
-233 -234 -237 0
233 234 -237 0
-233 234 237 0
235 -236 238 0
-235 -236 -238 0
235 236 -238 0
-235 236 238 0
237 238 0
-237 -238 0
2 -3 239 0
-2 -3 -239 0
2 3 -239 0
-2 3 239 0
4 -5 240 0
-4 -5 -240 0
4 5 -240 0
-4 5 240 0
-7 8 241 0
7 8 -241 0
-7 -8 -241 0
7 -8 241 0
11 12 242 0
-11 12 -242 0
11 -12 -242 0
-11 -12 242 0
13 14 243 0
-13 14 -243 0
13 -14 -243 0
-13 -14 243 0
15 16 244 0
-15 16 -244 0
15 -16 -244 0
-15 -16 244 0
18 19 245 0
-18 19 -245 0
18 -19 -245 0
-18 -19 245 0
-21 22 246 0
21 22 -246 0
-21 -22 -246 0
21 -22 246 0
23 25 247 0
-23 25 -247 0
23 -25 -247 0
-23 -25 247 0
-26 -27 248 0
26 -27 -248 0
-26 27 -248 0
26 27 248 0
28 29 249 0
-28 29 -249 0
28 -29 -249 0
-28 -29 249 0
-35 36 250 0
35 36 -250 0
-35 -36 -250 0
35 -36 250 0
38 -39 251 0
-38 -39 -251 0
38 39 -251 0
-38 39 251 0
-41 42 252 0
41 42 -252 0
-41 -42 -252 0
41 -42 252 0
43 -44 253 0
-43 -44 -253 0
43 44 -253 0
-43 44 253 0
238 -239 254 0
-238 -239 -254 0
238 239 -254 0
-238 239 254 0
240 -241 255 0
-240 -241 -255 0
240 241 -255 0
-240 241 255 0
242 -243 256 0
-242 -243 -256 0
242 243 -256 0
-242 243 256 0
244 -245 257 0
-244 -245 -257 0
244 245 -257 0
-244 245 257 0
246 -247 258 0
-246 -247 -258 0
246 247 -258 0
-246 247 258 0
248 -249 259 0
-248 -249 -259 0
248 249 -259 0
-248 249 259 0
250 -251 260 0
-250 -251 -260 0
250 251 -260 0
-250 251 260 0
252 -253 261 0
-252 -253 -261 0
252 253 -261 0
-252 253 261 0
254 -255 262 0
-254 -255 -262 0
254 255 -262 0
-254 255 262 0
256 -257 263 0
-256 -257 -263 0
256 257 -263 0
-256 257 263 0
258 -259 264 0
-258 -259 -264 0
258 259 -264 0
-258 259 264 0
260 -261 265 0
-260 -261 -265 0
260 261 -265 0
-260 261 265 0
262 -263 266 0
-262 -263 -266 0
262 263 -266 0
-262 263 266 0
264 -265 267 0
-264 -265 -267 0
264 265 -267 0
-264 265 267 0
266 267 0
-266 -267 0
2 -3 268 0
-2 -3 -268 0
2 3 -268 0
-2 3 268 0
-4 5 269 0
4 5 -269 0
-4 -5 -269 0
4 -5 269 0
7 8 270 0
-7 8 -270 0
7 -8 -270 0
-7 -8 270 0
10 -11 271 0
-10 -11 -271 0
10 11 -271 0
-10 11 271 0
12 13 272 0
-12 13 -272 0
12 -13 -272 0
-12 -13 272 0
-18 -19 273 0
18 -19 -273 0
-18 19 -273 0
18 19 273 0
-20 22 274 0
20 22 -274 0
-20 -22 -274 0
20 -22 274 0
-23 -30 275 0
23 -30 -275 0
-23 30 -275 0
23 30 275 0
35 -36 276 0
-35 -36 -276 0
35 36 -276 0
-35 36 276 0
37 39 277 0
-37 39 -277 0
37 -39 -277 0
-37 -39 277 0
-42 43 278 0
42 43 -278 0
-42 -43 -278 0
42 -43 278 0
-44 45 279 0
44 45 -279 0
-44 -45 -279 0
44 -45 279 0
267 -268 280 0
-267 -268 -280 0
267 268 -280 0
-267 268 280 0
269 -270 281 0
-269 -270 -281 0
269 270 -281 0
-269 270 281 0
271 -272 282 0
-271 -272 -282 0
271 272 -282 0
-271 272 282 0
273 -274 283 0
-273 -274 -283 0
273 274 -283 0
-273 274 283 0
275 -276 284 0
-275 -276 -284 0
275 276 -284 0
-275 276 284 0
277 -278 285 0
-277 -278 -285 0
277 278 -285 0
-277 278 285 0
279 -280 286 0
-279 -280 -286 0
279 280 -286 0
-279 280 286 0
281 -282 287 0
-281 -282 -287 0
281 282 -287 0
-281 282 287 0
283 -284 288 0
-283 -284 -288 0
283 284 -288 0
-283 284 288 0
285 -286 289 0
-285 -286 -289 0
285 286 -289 0
-285 286 289 0
287 -288 290 0
-287 -288 -290 0
287 288 -290 0
-287 288 290 0
289 290 0
-289 -290 0
